solution status: optimal solution found
objective value:                     113945.409479587
d11(0,0)                                            1 	(obj:0)
d11(2,3)                                            1 	(obj:0)
d11(2,4)                                            1 	(obj:0)
d11(2,5)                                            1 	(obj:0)
d11(2,6)                                            1 	(obj:0)
d11(3,7)                                            1 	(obj:0)
d11(3,9)                                            1 	(obj:0)
d11(3,10)                                           1 	(obj:0)
d11(3,11)                                           1 	(obj:0)
d11(3,12)                                           1 	(obj:0)
d11(3,13)                                           1 	(obj:0)
d11(3,14)                                           1 	(obj:0)
d12(1,2)                                            1 	(obj:0)
d21(3,7)                                            1 	(obj:0)
d21(3,11)                                           1 	(obj:0)
y2(1,2)                              1385.48851144896 	(obj:0)
STE(1,1)                                        11592 	(obj:0)
STE(0,0)                                        12600 	(obj:0)
STE(1,2)                             12908.2140858765 	(obj:0)
STE(2,3)                             8567.99999999939 	(obj:0)
STE(2,4)                             10226.2498988881 	(obj:0)
STE(2,5)                             9884.21408587584 	(obj:0)
STE(2,6)                             11542.4639847647 	(obj:0)
STE(3,7)                             5901.75010111054 	(obj:0)
STE(3,8)                             7559.99999999939 	(obj:0)
STE(3,9)                              7559.9999999993 	(obj:0)
STE(3,10)                            9218.24989888815 	(obj:0)
STE(3,11)                            7217.96418698699 	(obj:0)
STE(3,12)                            8876.21408587578 	(obj:0)
STE(3,13)                            8876.21408587581 	(obj:0)
STE(3,14)                            10534.4639847647 	(obj:0)
AVE(2)                               3315.65537776224 	(obj:0)
y1(2,3)                              1814.40000000055 	(obj:0)
y1(2,4)                               321.97509100067 	(obj:0)
y1(2,5)                              1814.40000000061 	(obj:0)
y1(2,6)                               321.97509100067 	(obj:0)
y1(3,7)                              1492.42490899996 	(obj:0)
y1(3,9)                              1492.42490899996 	(obj:0)
y1(3,11)                             1492.42490899996 	(obj:0)
y1(3,13)                             1492.42490899996 	(obj:0)
AVE(3)                               3315.65799770399 	(obj:0)
WB(1)                                3248.33172520918 	(obj:0)
WG(2)                                3315.65537776224 	(obj:10)
WG(3)                                3315.65799770399 	(obj:10)
BG(1)                                2673.40993877551 	(obj:10)
BG(2)                                 1209.1831324425 	(obj:10)
BG(3)                                880.634501275601 	(obj:10)
AVE(1)                               3248.33172520918 	(obj:0)
